unsat
(:cnf-encoding-aux-vars   185
 :eliminated-applications 3
 :eliminated-vars         138
 :max-memory              20.17
 :memory                  19.06
 :nlsat-conflicts         4
 :nlsat-decisions         6
 :nlsat-learned-added     3
 :nlsat-propagations      12
 :num-allocs              48124
 :rlimit-count            146101
 :time                    0.07
 :total-time              0.09)
